50
16478

407 139
826 612
795 8
429 850
217 984
78 663
153 587
432 387
259 966
312 331
22 805
236 361
152 564
443 952
786 163
38 529
618 349
928 872
642 172
806 915
948 56
338 687
360 833
652 994
187 605
745 796
368 91
988 611
125 479
310 524
863 711
984 636
37 884
682 725
72 573
466 529
708 543
226 437
145 317
387 818
965 772
235 482
360 545
525 291
45 47
741 100
662 201
203 454
95 125
657 60
